(set-info :smt-lib-version 2.6)
(set-logic UF)
(set-info :source |Benchmarks from the paper: "Extending Sledgehammer with SMT Solvers" by Jasmin Blanchette, Sascha Bohme, and Lawrence C. Paulson, CADE 2011.  Translated to SMT2 by Andrew Reynolds and Morgan Deters.|)
(set-info :category "industrial")
(set-info :status unsat)
(declare-sort S1 0)
(declare-sort S2 0)
(declare-sort S3 0)
(declare-sort S4 0)
(declare-sort S5 0)
(declare-sort S6 0)
(declare-sort S7 0)
(declare-sort S8 0)
(declare-sort S9 0)
(declare-sort S10 0)
(declare-sort S11 0)
(declare-sort S12 0)
(declare-sort S13 0)
(declare-sort S14 0)
(declare-sort S15 0)
(declare-sort S16 0)
(declare-fun f1 () S1)
(declare-fun f2 () S1)
(declare-fun f3 (S3 S2) S1)
(declare-fun f4 (S4 S3) S3)
(declare-fun f5 (S2) S4)
(declare-fun f6 (S2 S3) S1)
(declare-fun f7 (S6 S5) S1)
(declare-fun f8 (S7 S6) S6)
(declare-fun f9 (S5) S7)
(declare-fun f10 (S5 S6) S1)
(declare-fun f11 () S3)
(declare-fun f12 () S6)
(declare-fun f13 (S5) S7)
(declare-fun f14 (S2) S4)
(declare-fun f15 (S6 S6) S1)
(declare-fun f16 (S6 S6) S1)
(declare-fun f17 (S3 S3) S1)
(declare-fun f18 (S8 S2) S5)
(declare-fun f19 (S9 S3) S6)
(declare-fun f20 (S8) S9)
(declare-fun f21 (S10 S5) S5)
(declare-fun f22 (S10) S7)
(declare-fun f23 (S11 S2) S2)
(declare-fun f24 (S11) S4)
(declare-fun f25 () S3)
(declare-fun f26 () S6)
(declare-fun f27 (S12) S1)
(declare-fun f28 () S3)
(declare-fun f29 () S8)
(declare-fun f30 (S13 S12) S5)
(declare-fun f31 () S13)
(declare-fun f32 (S6) S1)
(declare-fun f33 (S3) S1)
(declare-fun f34 (S14 S6) S5)
(declare-fun f35 () S14)
(declare-fun f36 (S15 S3) S2)
(declare-fun f37 () S15)
(declare-fun f38 (S6) S6)
(declare-fun f39 (S3) S3)
(declare-fun f40 (S6) S16)
(assert (not (= f1 f2)))
(assert (forall ((?v0 S2) (?v1 S3) (?v2 S2)) (= (= (f3 (f4 (f5 ?v0) ?v1) ?v2) f1) (or (= ?v2 ?v0) (= (f6 ?v2 ?v1) f1)))))
(assert (forall ((?v0 S5) (?v1 S6) (?v2 S5)) (= (= (f7 (f8 (f9 ?v0) ?v1) ?v2) f1) (or (= ?v2 ?v0) (= (f10 ?v2 ?v1) f1)))))
(assert (forall ((?v0 S2)) (= (= (f3 f11 ?v0) f1) false)))
(assert (forall ((?v0 S5)) (= (= (f7 f12 ?v0) f1) false)))
(assert (forall ((?v0 S5) (?v1 S6)) (= (f10 ?v0 (f8 (f13 ?v0) ?v1)) f1)))
(assert (forall ((?v0 S2) (?v1 S3)) (= (f6 ?v0 (f4 (f14 ?v0) ?v1)) f1)))
(assert (forall ((?v0 S6) (?v1 S6)) (=> (= (f15 ?v0 ?v1) f1) (= (f16 ?v1 ?v0) f1))))
(assert (forall ((?v0 S5) (?v1 S6) (?v2 S6)) (= (= (f15 (f8 (f13 ?v0) ?v1) ?v2) f1) (and (= (f10 ?v0 ?v2) f1) (= (f15 ?v1 ?v2) f1)))))
(assert (forall ((?v0 S2) (?v1 S3) (?v2 S3)) (= (= (f17 (f4 (f14 ?v0) ?v1) ?v2) f1) (and (= (f6 ?v0 ?v2) f1) (= (f17 ?v1 ?v2) f1)))))
(assert (forall ((?v0 S2) (?v1 S3) (?v2 S8)) (let ((?v_0 (f19 (f20 ?v2) ?v1))) (=> (= (f6 ?v0 ?v1) f1) (= (f8 (f13 (f18 ?v2 ?v0)) ?v_0) ?v_0)))))
(assert (forall ((?v0 S5) (?v1 S6) (?v2 S10)) (let ((?v_0 (f8 (f22 ?v2) ?v1))) (=> (= (f10 ?v0 ?v1) f1) (= (f8 (f13 (f21 ?v2 ?v0)) ?v_0) ?v_0)))))
(assert (forall ((?v0 S2) (?v1 S3) (?v2 S11)) (let ((?v_0 (f4 (f24 ?v2) ?v1))) (=> (= (f6 ?v0 ?v1) f1) (= (f4 (f14 (f23 ?v2 ?v0)) ?v_0) ?v_0)))))
(assert (forall ((?v0 S3) (?v1 S2)) (=> (= ?v0 f25) (not (= (f6 ?v1 ?v0) f1)))))
(assert (forall ((?v0 S6) (?v1 S5)) (=> (= ?v0 f26) (not (= (f10 ?v1 ?v0) f1)))))
(assert (forall ((?v0 S12) (?v1 S6)) (=> (= (f27 ?v0) f1) (=> (forall ((?v2 S2)) (=> (= (f6 ?v2 f28) f1) (= (f16 ?v1 (f8 (f13 (f18 f29 ?v2)) f26)) f1))) (= (f16 ?v1 (f8 (f13 (f30 f31 ?v0)) f26)) f1)))))
(assert (forall ((?v0 S6)) (= (= (f32 ?v0) f1) (or (= ?v0 f26) (exists ((?v1 S6) (?v2 S5)) (and (= ?v0 (f8 (f13 ?v2) ?v1)) (= (f32 ?v1) f1)))))))
(assert (forall ((?v0 S3)) (= (= (f33 ?v0) f1) (or (= ?v0 f25) (exists ((?v1 S3) (?v2 S2)) (and (= ?v0 (f4 (f14 ?v2) ?v1)) (= (f33 ?v1) f1)))))))
(assert (forall ((?v0 S5)) (= (f34 f35 (f8 (f13 ?v0) f26)) ?v0)))
(assert (forall ((?v0 S2)) (= (f36 f37 (f4 (f14 ?v0) f25)) ?v0)))
(assert (forall ((?v0 S5) (?v1 S6)) (= (f8 (f13 ?v0) ?v1) (f38 (f8 (f9 ?v0) ?v1)))))
(assert (forall ((?v0 S2) (?v1 S3)) (= (f4 (f14 ?v0) ?v1) (f39 (f4 (f5 ?v0) ?v1)))))
(assert (forall ((?v0 S6)) (= (f15 f26 ?v0) f1)))
(assert (forall ((?v0 S3)) (= (f17 f25 ?v0) f1)))
(assert (= f26 (f38 f12)))
(assert (= f25 (f39 f11)))
(assert (not (forall ((?v0 S6) (?v1 S12)) (let ((?v_0 (f19 (f20 f29) f28))) (=> (= (f33 f28) f1) (=> (= (f15 ?v0 ?v_0) f1) (=> (= (f40 ?v0) (f40 ?v_0)) (=> (= (f27 ?v1) f1) (=> (= ?v0 ?v_0) (= (f16 ?v0 (f8 (f13 (f30 f31 ?v1)) f26)) f1))))))))))
(check-sat)
(exit)
